0 0 0 0
0 1 2 1
0 2 1 0
0 3 1 3
0 4 0 1
0 5 0 12
0 6 0 5
0 7 0 6
0 8 0 16
0 9 2 11
0 10 0 10
0 11 1 19
0 12 0 33
0 13 0 11
0 14 0 28
0 15 1 13
0 16 1 21
0 17 0 25
0 18 0 11
0 19 0 30
0 20 2 34
0 21 0 29
0 22 2 34
0 23 2 12
0 24 2 22
0 25 2 30
0 26 2 30
0 27 2 38
0 28 2 40
0 29 0 46
0 30 0 42
0 31 0 48
